6 12
29 20
26 20
69 20
78 20
79 20
68 21
62 21
69 21
60 21
90 21
67 21
65 21
75 21
60 21
27 22
26 22
60 22
63 22
68 22
60 22
65 22
90 22
96 22
79 22
61 22
68 23
25 23
26 23
66 23
66 23
67 23
95 23
91 23
79 23
61 23
68 23
67 24
67 24
65 24
67 24
64 24
99 24
99 24
98 24
69 24
68 24
62 24
64 24
68 24
60 25
65 25
90 25
60 25
68 25
68 25
22 26
63 26
61 26
65 26
69 26
98 26
98 26
96 26
60 26
75 26
73 26
73 26
71 26
25 27
69 27
65 27
98 27
91 27
92 27
92 27
61 27
66 27
63 27
66 27
65 27
68 27
64 28
94 28
71 28
75 28
75 28
68 28
68 28
68 28
21 29
62 29
67 29
63 29
92 29
67 29
74 29
78 29
66 29
68 29
